Ordonnancement/plne/source/petit_instance/3job/3job_6.dat
data;
param nombreJob := 3;
param nombreRessource := 3;
param duree := 1 6 2 7 3 2;
param capaciteRessource := 1 5 2 10 3 14;
param besoinRessource : 1 2 3 :=
                    1   1 4 9
                    2   4 5 4
                    3   4 6 8;
end;

