Ordonnancement/plne/source/glpk_resultat/3job/3job_6.sol
Problem:    glpsolRcpsp
Rows:       133
Columns:    46 (45 integer, 45 binary)
Non-zeros:  622
Status:     INTEGER OPTIMAL
Objective:  obj = 9 (MINimum)

   No.   Row name        Activity     Lower bound   Upper bound
------ ------------    ------------- ------------- -------------
     1 periode[1]                  6             6             = 
     2 periode[2]                  7             7             = 
     3 periode[3]                  2             2             = 
     4 complet[1,1]                4                           6 
     5 complet[1,2]                3                           6 
     6 complet[1,3]                2                           6 
     7 complet[1,4]                1                           6 
     8 complet[1,5]                0                           6 
     9 complet[1,6]                6                           6 
    10 complet[1,7]                0                           6 
    11 complet[1,8]                0                           6 
    12 complet[1,9]                0                           6 
    13 complet[1,10]
                                   0                           6 
    14 complet[1,11]
                                   0                           6 
    15 complet[1,12]
                                   0                           6 
    16 complet[1,13]
                                   0                           6 
    17 complet[2,1]                5                           7 
    18 complet[2,2]                4                           7 
    19 complet[2,3]                3                           7 
    20 complet[2,4]                2                           7 
    21 complet[2,5]                1                           7 
    22 complet[2,6]                0                           7 
    23 complet[2,7]                7                           7 
    24 complet[2,8]                0                           7 
    25 complet[2,9]                0                           7 
    26 complet[2,10]
                                   0                           7 
    27 complet[2,11]
                                   0                           7 
    28 complet[2,12]
                                   0                           7 
    29 complet[2,13]
                                   0                           7 
    30 complet[3,1]                2                           2 
    31 complet[3,2]                2                           2 
    32 complet[3,3]                2                           2 
    33 complet[3,4]                2                           2 
    34 complet[3,5]                2                           2 
    35 complet[3,6]                2                           2 
    36 complet[3,7]               -1                           2 
    37 complet[3,8]                0                           2 
    38 complet[3,9]                2                           2 
    39 complet[3,10]
                                   0                           2 
    40 complet[3,11]
                                   0                           2 
    41 complet[3,12]
                                   0                           2 
    42 complet[3,13]
                                   0                           2 
    43 cmax[1,1]                   8            -0               
    44 cmax[1,2]                   7            -0               
    45 cmax[1,3]                   6            -0               
    46 cmax[1,4]                   5            -0               
    47 cmax[1,5]                   4            -0               
    48 cmax[1,6]                   3            -0               
    49 cmax[1,7]                   9            -0               
    50 cmax[1,8]                   9            -0               
    51 cmax[1,9]                   9            -0               
    52 cmax[1,10]                  9            -0               
    53 cmax[1,11]                  9            -0               
    54 cmax[1,12]                  9            -0               
    55 cmax[1,13]                  9            -0               
    56 cmax[1,14]                  9            -0               
    57 cmax[1,15]                  9            -0               
    58 cmax[2,1]                   8            -0               
    59 cmax[2,2]                   7            -0               
    60 cmax[2,3]                   6            -0               
    61 cmax[2,4]                   5            -0               
    62 cmax[2,5]                   4            -0               
    63 cmax[2,6]                   3            -0               
    64 cmax[2,7]                   2            -0               
    65 cmax[2,8]                   9            -0               
    66 cmax[2,9]                   9            -0               
    67 cmax[2,10]                  9            -0               
    68 cmax[2,11]                  9            -0               
    69 cmax[2,12]                  9            -0               
    70 cmax[2,13]                  9            -0               
    71 cmax[2,14]                  9            -0               
    72 cmax[2,15]                  9            -0               
    73 cmax[3,1]                   9            -0               
    74 cmax[3,2]                   9            -0               
    75 cmax[3,3]                   9            -0               
    76 cmax[3,4]                   9            -0               
    77 cmax[3,5]                   9            -0               
    78 cmax[3,6]                   9            -0               
    79 cmax[3,7]                   9            -0               
    80 cmax[3,8]                   1            -0               
    81 cmax[3,9]                   0            -0               
    82 cmax[3,10]                  9            -0               
    83 cmax[3,11]                  9            -0               
    84 cmax[3,12]                  9            -0               
    85 cmax[3,13]                  9            -0               
    86 cmax[3,14]                  9            -0               
    87 cmax[3,15]                  9            -0               
    88 ressource[1,1]
                                   5                           5 
    89 ressource[1,2]
                                   5                           5 
    90 ressource[1,3]
                                   5                           5 
    91 ressource[1,4]
                                   5                           5 
    92 ressource[1,5]
                                   5                           5 
    93 ressource[1,6]
                                   5                           5 
    94 ressource[1,7]
                                   4                           5 
    95 ressource[1,8]
                                   4                           5 
    96 ressource[1,9]
                                   4                           5 
    97 ressource[1,10]
                                   0                           5 
    98 ressource[1,11]
                                   0                           5 
    99 ressource[1,12]
                                   0                           5 
   100 ressource[1,13]
                                   0                           5 
   101 ressource[1,14]
                                   0                           5 
   102 ressource[1,15]
                                   0                           5 
   103 ressource[2,1]
                                   9                          10 
   104 ressource[2,2]
                                   9                          10 
   105 ressource[2,3]
                                   9                          10 
   106 ressource[2,4]
                                   9                          10 
   107 ressource[2,5]
                                   9                          10 
   108 ressource[2,6]
                                   9                          10 
   109 ressource[2,7]
                                   5                          10 
   110 ressource[2,8]
                                   6                          10 
   111 ressource[2,9]
                                   6                          10 
   112 ressource[2,10]
                                   0                          10 
   113 ressource[2,11]
                                   0                          10 
   114 ressource[2,12]
                                   0                          10 
   115 ressource[2,13]
                                   0                          10 
   116 ressource[2,14]
                                   0                          10 
   117 ressource[2,15]
                                   0                          10 
   118 ressource[3,1]
                                  13                          14 
   119 ressource[3,2]
                                  13                          14 
   120 ressource[3,3]
                                  13                          14 
   121 ressource[3,4]
                                  13                          14 
   122 ressource[3,5]
                                  13                          14 
   123 ressource[3,6]
                                  13                          14 
   124 ressource[3,7]
                                   4                          14 
   125 ressource[3,8]
                                   8                          14 
   126 ressource[3,9]
                                   8                          14 
   127 ressource[3,10]
                                   0                          14 
   128 ressource[3,11]
                                   0                          14 
   129 ressource[3,12]
                                   0                          14 
   130 ressource[3,13]
                                   0                          14 
   131 ressource[3,14]
                                   0                          14 
   132 ressource[3,15]
                                   0                          14 
   133 obj                         9                             

   No. Column name       Activity     Lower bound   Upper bound
------ ------------    ------------- ------------- -------------
     1 x[1,1]       *              1             0             1 
     2 x[1,2]       *              1             0             1 
     3 x[1,3]       *              1             0             1 
     4 x[1,4]       *              1             0             1 
     5 x[1,5]       *              1             0             1 
     6 x[1,6]       *              1             0             1 
     7 x[1,7]       *              0             0             1 
     8 x[1,8]       *              0             0             1 
     9 x[1,9]       *              0             0             1 
    10 x[1,10]      *              0             0             1 
    11 x[1,11]      *              0             0             1 
    12 x[1,12]      *              0             0             1 
    13 x[1,13]      *              0             0             1 
    14 x[1,14]      *              0             0             1 
    15 x[1,15]      *              0             0             1 
    16 x[2,1]       *              1             0             1 
    17 x[2,2]       *              1             0             1 
    18 x[2,3]       *              1             0             1 
    19 x[2,4]       *              1             0             1 
    20 x[2,5]       *              1             0             1 
    21 x[2,6]       *              1             0             1 
    22 x[2,7]       *              1             0             1 
    23 x[2,8]       *              0             0             1 
    24 x[2,9]       *              0             0             1 
    25 x[2,10]      *              0             0             1 
    26 x[2,11]      *              0             0             1 
    27 x[2,12]      *              0             0             1 
    28 x[2,13]      *              0             0             1 
    29 x[2,14]      *              0             0             1 
    30 x[2,15]      *              0             0             1 
    31 x[3,1]       *              0             0             1 
    32 x[3,2]       *              0             0             1 
    33 x[3,3]       *              0             0             1 
    34 x[3,4]       *              0             0             1 
    35 x[3,5]       *              0             0             1 
    36 x[3,6]       *              0             0             1 
    37 x[3,7]       *              0             0             1 
    38 x[3,8]       *              1             0             1 
    39 x[3,9]       *              1             0             1 
    40 x[3,10]      *              0             0             1 
    41 x[3,11]      *              0             0             1 
    42 x[3,12]      *              0             0             1 
    43 x[3,13]      *              0             0             1 
    44 x[3,14]      *              0             0             1 
    45 x[3,15]      *              0             0             1 
    46 z                           9                             

Integer feasibility conditions:

KKT.PE: max.abs.err = 0.00e+00 on row 0
        max.rel.err = 0.00e+00 on row 0
        High quality

KKT.PB: max.abs.err = 0.00e+00 on row 0
        max.rel.err = 0.00e+00 on row 0
        High quality

End of output
